; benchmark generated from python API
(set-info :status unknown)
(declare-fun strlen_72_64 () (_ BitVec 64))
(declare-fun args_0_8 () (_ BitVec 8))
(declare-fun strlen_74_64 () (_ BitVec 64))
(declare-fun args_1_8 () (_ BitVec 8))
(declare-fun strlen_77_64 () (_ BitVec 64))
(declare-fun args_2_8 () (_ BitVec 8))
(declare-fun args_3_8 () (_ BitVec 8))
(declare-fun strlen_80_64 () (_ BitVec 64))
(declare-fun strlen_84_64 () (_ BitVec 64))
(declare-fun args_4_8 () (_ BitVec 8))
(declare-fun args_5_16 () (_ BitVec 16))
(declare-fun strlen_88_64 () (_ BitVec 64))
(declare-fun args_6_16 () (_ BitVec 16))
(declare-fun strlen_92_64 () (_ BitVec 64))
(declare-fun args_7_16 () (_ BitVec 16))
(declare-fun strlen_96_64 () (_ BitVec 64))
(declare-fun args_8_16 () (_ BitVec 16))
(declare-fun strlen_100_64 () (_ BitVec 64))
(declare-fun strlen_104_64 () (_ BitVec 64))
(declare-fun args_9_16 () (_ BitVec 16))
(declare-fun strlen_108_64 () (_ BitVec 64))
(declare-fun args_10_32 () (_ BitVec 32))
(declare-fun strlen_113_64 () (_ BitVec 64))
(declare-fun args_11_32 () (_ BitVec 32))
(declare-fun sigaction_oldact_1255_1216 () (_ BitVec 1216))
(assert
 (= (_ bv1 64) strlen_72_64))
(assert
 (let (($x69 (= (_ bv0 8) args_0_8)))
 (not $x69)))
(assert
 (= (_ bv1 64) strlen_74_64))
(assert
 (let (($x347 (= (_ bv0 8) args_1_8)))
 (not $x347)))
(assert
 (= (_ bv1 64) strlen_77_64))
(assert
 (let (($x369 (= (_ bv0 8) args_2_8)))
 (not $x369)))
(assert
 (let (($x415 (= (_ bv0 8) args_3_8)))
 (not $x415)))
(assert
 (= (_ bv1 64) strlen_80_64))
(assert
 (= (_ bv1 64) strlen_84_64))
(assert
 (let (($x222 (= (_ bv0 8) args_4_8)))
 (not $x222)))
(assert
 (let ((?x533 ((_ extract 7 0) args_5_16)))
 (let (($x532 (= (_ bv0 8) ?x533)))
 (not $x532))))
(assert
 (let ((?x333 ((_ extract 15 8) args_5_16)))
 (let (($x537 (= (_ bv0 8) ?x333)))
 (not $x537))))
(assert
 (= (_ bv2 64) strlen_88_64))
(assert
 (let ((?x698 ((_ extract 7 0) args_6_16)))
 (let (($x717 (= (_ bv0 8) ?x698)))
 (not $x717))))
(assert
 (let ((?x425 ((_ extract 15 8) args_6_16)))
 (let (($x701 (= (_ bv0 8) ?x425)))
 (not $x701))))
(assert
 (= (_ bv2 64) strlen_92_64))
(assert
 (let ((?x306 ((_ extract 7 0) args_7_16)))
 (let (($x734 (= (_ bv0 8) ?x306)))
 (not $x734))))
(assert
 (let ((?x498 ((_ extract 15 8) args_7_16)))
 (let (($x787 (= (_ bv0 8) ?x498)))
 (not $x787))))
(assert
 (= (_ bv2 64) strlen_96_64))
(assert
 (let ((?x389 ((_ extract 7 0) args_8_16)))
 (let (($x870 (= (_ bv0 8) ?x389)))
 (not $x870))))
(assert
 (let ((?x577 ((_ extract 15 8) args_8_16)))
 (let (($x827 (= (_ bv0 8) ?x577)))
 (not $x827))))
(assert
 (= (_ bv2 64) strlen_100_64))
(assert
 (= (_ bv2 64) strlen_104_64))
(assert
 (let ((?x945 ((_ extract 7 0) args_9_16)))
 (let (($x959 (= (_ bv0 8) ?x945)))
 (not $x959))))
(assert
 (let ((?x898 ((_ extract 15 8) args_9_16)))
 (let (($x649 (= (_ bv0 8) ?x898)))
 (not $x649))))
(assert
 (let (($x851 (= (_ bv4 64) strlen_108_64)))
 (not $x851)))
(assert
 (let ((?x1055 (bvadd (_ bv576460752303357849 64) strlen_108_64)))
 (let ((?x1028 ((_ extract 7 0) args_10_32)))
 (let (($x1027 (= (_ bv0 8) ?x1028)))
 (let ((?x958 (ite $x1027 (_ bv576460752303357852 64) (_ bv576460752303357853 64))))
 (let ((?x1024 ((_ extract 15 8) args_10_32)))
 (let (($x1018 (= (_ bv0 8) ?x1024)))
 (let ((?x1030 (ite $x1018 (_ bv576460752303357851 64) ?x958)))
 (let ((?x1022 ((_ extract 23 16) args_10_32)))
 (let (($x1023 (= (_ bv0 8) ?x1022)))
 (let ((?x1031 (ite $x1023 (_ bv576460752303357850 64) ?x1030)))
 (let ((?x737 ((_ extract 31 24) args_10_32)))
 (let (($x1026 (= (_ bv0 8) ?x737)))
 (let ((?x1032 (ite $x1026 (_ bv576460752303357849 64) ?x1031)))
 (= ?x1032 ?x1055)))))))))))))))
(assert
 (let ((?x1144 ((_ extract 7 0) args_11_32)))
 (let (($x1075 (= (_ bv0 8) ?x1144)))
 (let ((?x1146 (ite $x1075 (_ bv576460752303357857 64) (_ bv576460752303357858 64))))
 (let ((?x1148 ((_ extract 15 8) args_11_32)))
 (let (($x1175 (= (_ bv0 8) ?x1148)))
 (let ((?x1149 (ite $x1175 (_ bv576460752303357856 64) ?x1146)))
 (let ((?x1147 ((_ extract 23 16) args_11_32)))
 (let (($x1173 (= (_ bv0 8) ?x1147)))
 (let ((?x1150 (ite $x1173 (_ bv576460752303357855 64) ?x1149)))
 (let ((?x852 ((_ extract 31 24) args_11_32)))
 (let (($x1058 (= (_ bv0 8) ?x852)))
 (let ((?x1151 (ite $x1058 (_ bv576460752303357854 64) ?x1150)))
 (let ((?x1152 (bvsub ?x1151 (_ bv576460752303357854 64))))
 (= ?x1152 strlen_113_64)))))))))))))))
(assert
 (let ((?x72935 ((_ extract 127 120) sigaction_oldact_1255_1216)))
 (let ((?x72963 (bvand ?x72935 (_ bv4 8))))
 (= (_ bv0 8) ?x72963))))
(maximize args_7_16)
(minimize args_7_16)
(maximize strlen_80_64)
(minimize args_0_8)
(minimize args_1_8)
(maximize strlen_84_64)
(maximize args_1_8)
(minimize strlen_108_64)
(minimize strlen_88_64)
(maximize strlen_104_64)
(maximize sigaction_oldact_1255_1216)
(maximize strlen_100_64)
(maximize args_10_32)
(minimize strlen_80_64)
(maximize strlen_113_64)
(maximize strlen_74_64)
(minimize sigaction_oldact_1255_1216)
(minimize strlen_77_64)
(minimize args_8_16)
(minimize args_9_16)
(maximize strlen_108_64)
(check-sat)
(get-objectives)
